p edge 20 49 10
v 1 5
v 1 11
v 2 6 12
v 2 8 16
v 2 15 20
v 2 9 17
v 1 18
v 3 1 2 13
v 1 7
v 5 3 4 10 14 19
e 1 3
e 1 5
e 1 7
e 1 8
e 1 10
e 1 14
e 1 15
e 1 18
e 1 19
e 2 14
e 2 16
e 2 17
e 2 18
e 2 20
e 3 4
e 3 5
e 3 6
e 3 12
e 3 13
e 3 14
e 3 16
e 4 5
e 4 9
e 4 15
e 4 16
e 4 19
e 5 7
e 5 8
e 6 9
e 6 12
e 6 15
e 6 19
e 7 14
e 7 19
e 8 18
e 9 18
e 10 13
e 10 15
e 10 20
e 11 15
e 11 16
e 12 15
e 12 19
e 13 14
e 13 17
e 14 15
e 15 20
e 16 20
e 18 19
